
(set-logic HORN)
(declare-fun Z_99 () Int)
(declare-fun S_34 (Int) Int)
(declare-fun diseqInt (Int Int) Bool)
(declare-fun unS_37 (Int Int) Bool)
(declare-fun isZ_34 (Int) Bool)
(declare-fun isS_34 (Int) Bool)
(assert (forall ((x_1083 Int))
	(unS_37 x_1083 (S_34 x_1083))))
(assert (isZ_34 Z_99))
(assert (forall ((x_1085 Int))
	(isS_34 (S_34 x_1085))))
(assert (forall ((x_1086 Int))
	(diseqInt Z_99 (S_34 x_1086))))
(assert (forall ((x_1087 Int))
	(diseqInt (S_34 x_1087) Z_99)))
(assert (forall ((x_1088 Int) (x_1089 Int))
	(=> (diseqInt x_1088 x_1089) (diseqInt (S_34 x_1088) (S_34 x_1089)))))
(declare-fun add_18 (Int Int Int) Bool)
(declare-fun minus_18 (Int Int Int) Bool)
(declare-fun le_18 (Int Int) Bool)
(declare-fun ge_18 (Int Int) Bool)
(declare-fun lt_18 (Int Int) Bool)
(declare-fun gt_18 (Int Int) Bool)
(declare-fun mult_18 (Int Int Int) Bool)
(declare-fun div_18 (Int Int Int) Bool)
(declare-fun mod_18 (Int Int Int) Bool)
(assert (forall ((y_79 Int))
	(add_18 y_79 Z_99 y_79)))
(assert (forall ((x_1067 Int) (y_79 Int) (r_18 Int))
	(=> (add_18 r_18 x_1067 y_79) (add_18 (S_34 r_18) (S_34 x_1067) y_79))))
(assert (forall ((y_79 Int))
	(minus_18 Z_99 Z_99 y_79)))
(assert (forall ((x_1067 Int) (y_79 Int) (r_18 Int))
	(=> (minus_18 r_18 x_1067 y_79) (minus_18 (S_34 r_18) (S_34 x_1067) y_79))))
(assert (forall ((y_79 Int))
	(le_18 Z_99 y_79)))
(assert (forall ((x_1067 Int) (y_79 Int))
	(=> (le_18 x_1067 y_79) (le_18 (S_34 x_1067) (S_34 y_79)))))
(assert (forall ((y_79 Int))
	(ge_18 y_79 Z_99)))
(assert (forall ((x_1067 Int) (y_79 Int))
	(=> (ge_18 x_1067 y_79) (ge_18 (S_34 x_1067) (S_34 y_79)))))
(assert (forall ((y_79 Int))
	(lt_18 Z_99 (S_34 y_79))))
(assert (forall ((x_1067 Int) (y_79 Int))
	(=> (lt_18 x_1067 y_79) (lt_18 (S_34 x_1067) (S_34 y_79)))))
(assert (forall ((y_79 Int))
	(gt_18 (S_34 y_79) Z_99)))
(assert (forall ((x_1067 Int) (y_79 Int))
	(=> (gt_18 x_1067 y_79) (gt_18 (S_34 x_1067) (S_34 y_79)))))
(assert (forall ((y_79 Int))
	(mult_18 Z_99 Z_99 y_79)))
(assert (forall ((x_1067 Int) (y_79 Int) (r_18 Int) (z_100 Int))
	(=> (and (mult_18 r_18 x_1067 y_79) (add_18 z_100 r_18 y_79)) (mult_18 z_100 (S_34 x_1067) y_79))))
(assert (forall ((x_1067 Int) (y_79 Int))
	(=> (lt_18 x_1067 y_79) (div_18 Z_99 x_1067 y_79))))
(assert (forall ((x_1067 Int) (y_79 Int) (r_18 Int) (z_100 Int))
	(=> (and (ge_18 x_1067 y_79) (minus_18 z_100 x_1067 y_79) (div_18 r_18 z_100 y_79)) (div_18 (S_34 r_18) x_1067 y_79))))
(assert (forall ((x_1067 Int) (y_79 Int))
	(=> (lt_18 x_1067 y_79) (mod_18 x_1067 x_1067 y_79))))
(assert (forall ((x_1067 Int) (y_79 Int) (r_18 Int) (z_100 Int))
	(=> (and (ge_18 x_1067 y_79) (minus_18 z_100 x_1067 y_79) (mod_18 r_18 z_100 y_79)) (mod_18 r_18 x_1067 y_79))))
(declare-datatypes ((list_21 0)) (((nil_21) (cons_21 (head_42 Int) (tail_42 list_21)))))
(declare-fun diseqlist_21 (list_21 list_21) Bool)
(declare-fun head_43 (Int list_21) Bool)
(declare-fun tail_43 (list_21 list_21) Bool)
(declare-fun isnil_21 (list_21) Bool)
(declare-fun iscons_21 (list_21) Bool)
(assert (forall ((x_1069 Int) (x_1070 list_21))
	(head_43 x_1069 (cons_21 x_1069 x_1070))))
(assert (forall ((x_1069 Int) (x_1070 list_21))
	(tail_43 x_1070 (cons_21 x_1069 x_1070))))
(assert (isnil_21 nil_21))
(assert (forall ((x_1072 Int) (x_1073 list_21))
	(iscons_21 (cons_21 x_1072 x_1073))))
(assert (forall ((x_1074 Int) (x_1075 list_21))
	(diseqlist_21 nil_21 (cons_21 x_1074 x_1075))))
(assert (forall ((x_1076 Int) (x_1077 list_21))
	(diseqlist_21 (cons_21 x_1076 x_1077) nil_21)))
(assert (forall ((x_1078 Int) (x_1079 list_21) (x_1080 Int) (x_1081 list_21))
	(=> (diseqInt x_1078 x_1080) (diseqlist_21 (cons_21 x_1078 x_1079) (cons_21 x_1080 x_1081)))))
(assert (forall ((x_1078 Int) (x_1079 list_21) (x_1080 Int) (x_1081 list_21))
	(=> (diseqlist_21 x_1079 x_1081) (diseqlist_21 (cons_21 x_1078 x_1079) (cons_21 x_1080 x_1081)))))
(declare-fun butlast_1 (list_21 list_21) Bool)
(assert (forall ((x_1053 list_21) (x_1046 Int) (x_1047 list_21) (y_76 Int))
	(=> (butlast_1 x_1053 (cons_21 x_1046 x_1047)) (butlast_1 (cons_21 y_76 x_1053) (cons_21 y_76 (cons_21 x_1046 x_1047))))))
(assert (forall ((y_76 Int))
	(butlast_1 nil_21 (cons_21 y_76 nil_21))))
(assert (butlast_1 nil_21 nil_21))
(declare-fun x_1048 (list_21 list_21 list_21) Bool)
(assert (forall ((x_1057 list_21) (z_97 Int) (xs_25 list_21) (y_77 list_21))
	(=> (x_1048 x_1057 xs_25 y_77) (x_1048 (cons_21 z_97 x_1057) (cons_21 z_97 xs_25) y_77))))
(assert (forall ((x_1058 list_21))
	(x_1048 x_1058 nil_21 x_1058)))
(declare-fun butlastConcat_0 (list_21 list_21 list_21) Bool)
(assert (forall ((x_1059 list_21) (x_1060 list_21) (z_98 Int) (x_1051 list_21) (x_1050 list_21))
	(=> (and (butlast_1 x_1060 (cons_21 z_98 x_1051)) (x_1048 x_1059 x_1050 x_1060)) (butlastConcat_0 x_1059 x_1050 (cons_21 z_98 x_1051)))))
(assert (forall ((x_1062 list_21) (x_1050 list_21))
	(=> (butlast_1 x_1062 x_1050) (butlastConcat_0 x_1062 x_1050 nil_21))))
(assert (forall ((x_1064 list_21) (x_1065 list_21) (x_1066 list_21) (xs_26 list_21) (ys_9 list_21))
	(=> (and true (diseqlist_21 x_1065 x_1066) (x_1048 x_1064 xs_26 ys_9) (butlast_1 x_1065 x_1064) (butlastConcat_0 x_1066 xs_26 ys_9)) false)))
(check-sat)
